p cnf 13 22
-13 -11 10 0
-13 9 -7 0
-13 6 -4 0
12 11 5 0
12 -9 -8 0
-12 6 -5 0
-12 3 2 0
11 -10 -3 0
11 9 3 0
-10 -9 -7 0
-10 9 -6 0
10 7 5 0
-10 -5 2 0
10 3 1 0
-9 -8 -5 0
-9 7 5 0
9 -7 3 0
-9 7 2 0
9 4 -2 0
-8 -4 -3 0
-6 4 -2 0
-6 -4 -1 0
